\ENCODING=ISO-8859-1
\Problem name: IloCplex

Minimize
 obj1: 1000000 y0 + 1000000 y1 + 1000000 y2 + 1000000 y3 + 1000000 y4
       + 1000000 y5 + 1000000 y6 + 1000000 y7 + 1000000 y8 + 1000000 y9
       + 1000000 y10 + 1000000 y11 + 1000000 y12 + 1000000 y13 + 1000000 y14
       + 1000000 y15 + 1000000 y16 + 1000000 y17 + 1000000 y18 + 1000000 y19
       + 1000000 y20 + 1000000 y21 + 1000000 y22 + 1000000 y23 + 1000000 y24
       + 1000000 y25 + 1000000 y26 + 1000000 y27 + 1000000 y28 + 1000000 y29
       + 1000000 y30 + 1000000 y31 + 1000000 y32 + 1000000 y33 + 1000000 y34
       + 1000000 y35 + 1000000 y36 + 1000000 y37 + 1000000 y38 + 1000000 y39
       + 1000000 y40 + 1000000 y41 + 1000000 y42 + 1000000 y43 + 1000000 y44
       + 1000000 y45 + 1000000 y46 + 1000000 y47 + 1000000 y48 + 1000000 y49
Subject To
 c1:  y0  = 1
 c2:  y1  = 1
 c3:  y2  = 1
 c4:  y3  = 1
 c5:  y4  = 1
 c6:  y5  = 1
 c7:  y6  = 1
 c8:  y7  = 1
 c9:  y8  = 1
 c10: y9  = 1
 c11: y10  = 1
 c12: y11  = 1
 c13: y12  = 1
 c14: y13  = 1
 c15: y14  = 1
 c16: y15  = 1
 c17: y16  = 1
 c18: y17  = 1
 c19: y18  = 1
 c20: y19  = 1
 c21: y20  = 1
 c22: y21  = 1
 c23: y22  = 1
 c24: y23  = 1
 c25: y24  = 1
 c26: y25  = 1
 c27: y26  = 1
 c28: y27  = 1
 c29: y28  = 1
 c30: y29  = 1
 c31: y30  = 1
 c32: y31  = 1
 c33: y32  = 1
 c34: y33  = 1
 c35: y34  = 1
 c36: y35  = 1
 c37: y36  = 1
 c38: y37  = 1
 c39: y38  = 1
 c40: y39  = 1
 c41: y40  = 1
 c42: y41  = 1
 c43: y42  = 1
 c44: y43  = 1
 c45: y44  = 1
 c46: y45  = 1
 c47: y46  = 1
 c48: y47  = 1
 c49: y48  = 1
 c50: y49  = 1
End
